[runlim] version:		2.0.0rc12
[runlim] host:			ap-Precision-7550
[runlim] time limit:		311040000 seconds
[runlim] real time limit:	600 seconds
[runlim] space limit:		14000 MB
[runlim] argv[0]:		python3
[runlim] argv[1]:		-u
[runlim] argv[2]:		mip_no.py
[runlim] argv[3]:		scen04
[runlim] start:			Wed Mar 25 02:12:30 2026
[runlim] child:			67810
--- Building MIP model for 680 variables ---
--- Solving with CPLEX MIP ---
Version identifier: 22.1.1.0 | 2022-11-28 | 9160aff4d
CPXPARAM_Read_DataCheck                          1
CPXPARAM_MIP_Tolerances_MIPGap                   0
Legacy callback                                  i
Tried aggregator 4 times.
MIP Presolve eliminated 691145 rows and 13657 columns.
MIP Presolve modified 101747 coefficients.
Aggregator did 555 substitutions.
Reduced MIP has 2981 rows, 1664 columns, and 30162 nonzeros.
Reduced MIP has 1664 binaries, 0 generals, 0 SOSs, and 0 indicators.
Presolve time = 0.84 sec. (1599.98 ticks)
Found incumbent of value 46.000000 after 0.95 sec. (1714.66 ticks)
Probing fixed 747 vars, tightened 0 bounds.
Probing changed sense of 1218 constraints.
Probing time = 0.01 sec. (2.90 ticks)
Cover probing fixed 23 vars, tightened 1 bounds.
Tried aggregator 2 times.
MIP Presolve eliminated 2979 rows and 1661 columns.
MIP Presolve modified 2 coefficients.
Aggregator did 1 substitutions.
Reduced MIP has 1 rows, 2 columns, and 2 nonzeros.
Reduced MIP has 2 binaries, 0 generals, 0 SOSs, and 0 indicators.
Presolve time = 0.00 sec. (4.04 ticks)
Probing time = 0.00 sec. (0.00 ticks)
Tried aggregator 1 time.
MIP Presolve eliminated 1 rows and 2 columns.
All rows and columns eliminated.
Presolve time = 0.00 sec. (0.00 ticks)

Root node processing (before b&c):
  Real time             =    0.97 sec. (1768.83 ticks)
Parallel b&c, 12 threads:
  Real time             =    0.00 sec. (0.00 ticks)
  Sync time (average)   =    0.00 sec.
  Wait time (average)   =    0.00 sec.
                          ------------
Total (root+branch&cut) =    0.97 sec. (1768.83 ticks)

==============================
FINAL INCUMBENT SOLUTION:
{708, 470, 268, 30, 750, 512, 16, 254, 16, 254, 268, 30, 128, 366, 750, 512, 16, 254, 366, 128, 778, 540, 442, 680, 16, 254, 652, 414, 526, 764, 296, 58, 484, 722, 128, 366, 16, 254, 30, 268, 708, 470, 156, 394, 652, 414, 86, 324, 352, 114, 30, 268, 778, 540, 72, 310, 156, 394, 142, 380, 540, 778, 142, 380, 394, 156, 722, 484, 554, 792, 296, 58, 652, 414, 554, 792, 554, 792, 142, 380, 114, 352, 142, 380, 44, 282, 652, 414, 498, 736, 296, 58, 156, 394, 86, 324, 470, 708, 282, 44, 526, 764, 652, 414, 296, 58, 526, 764, 470, 708, 86, 324, 324, 86, 708, 470, 268, 30, 142, 380, 764, 526, 86, 324, 72, 310, 750, 512, 414, 652, 764, 526, 652, 414, 30, 268, 310, 72, 792, 554, 72, 310, 72, 310, 498, 736, 792, 554, 554, 792, 394, 156, 736, 498, 414, 652, 512, 750, 170, 408, 554, 792, 30, 268, 540, 778, 380, 142, 44, 282, 456, 694, 792, 554, 394, 156, 708, 470, 470, 708, 666, 428, 254, 16, 394, 156, 254, 16, 156, 394, 156, 394, 380, 142, 352, 114, 750, 512, 792, 554, 512, 750, 778, 540, 540, 778, 540, 778, 394, 156, 128, 366, 456, 694, 30, 268, 30, 268, 58, 296, 512, 750, 282, 44, 268, 30, 498, 736, 366, 128, 428, 666, 764, 526, 282, 44, 750, 512, 680, 442, 778, 540, 540, 778, 30, 268, 366, 128, 338, 100, 428, 666, 282, 44, 694, 456, 128, 366, 778, 540, 366, 128, 694, 456, 442, 680, 282, 44, 456, 694, 282, 44, 470, 708, 352, 114, 442, 680, 680, 442, 338, 100, 114, 352, 442, 680, 750, 512, 666, 428, 778, 540, 156, 394, 652, 414, 680, 442, 44, 282, 352, 114, 540, 778, 268, 30, 142, 380, 428, 666, 282, 44, 778, 540, 456, 694, 540, 778, 484, 722, 540, 778, 694, 456, 540, 778, 540, 778, 680, 442, 30, 268, 380, 142, 128, 366, 268, 30, 352, 114, 722, 484, 296, 58, 366, 128, 254, 16, 428, 666, 708, 470, 778, 540, 338, 100, 414, 652, 338, 100, 310, 72, 30, 268, 156, 394, 666, 428, 380, 142, 456, 694, 268, 30, 366, 128, 142, 380, 694, 456, 338, 100, 778, 540, 30, 268, 428, 666, 722, 484, 792, 554, 428, 666, 554, 792, 680, 442, 764, 526, 394, 156, 680, 442, 764, 526, 128, 366, 352, 114, 512, 750, 540, 778, 778, 540, 114, 352, 680, 442, 540, 778, 470, 708, 128, 366, 540, 778, 470, 708, 30, 268, 142, 380, 778, 540, 484, 722, 366, 128, 268, 30, 666, 428, 30, 268, 428, 666, 128, 366, 268, 30, 324, 86, 44, 282, 86, 324, 254, 16, 484, 722, 470, 708, 792, 554, 338, 100, 16, 254, 394, 156, 366, 128, 540, 778, 72, 310, 778, 540, 268, 30, 142, 380, 498, 736, 30, 268, 778, 540, 30, 268, 498, 736, 100, 338, 722, 484, 72, 310, 156, 394, 72, 310, 72, 310, 708, 470, 394, 156, 792, 554, 778, 540, 540, 778, 540, 778, 764, 526, 498, 736, 282, 44, 666, 428, 792, 554, 30, 268, 44, 282, 708, 470, 268, 30, 128, 366, 512, 750, 428, 666, 526, 764, 310, 72, 30, 268, 540, 778, 652, 414, 324, 86, 666, 428, 394, 156, 652, 414, 268, 30, 268, 30, 72, 310, 30, 268, 778, 540, 296, 58, 540, 778, 666, 428, 366, 128, 694, 456, 778, 540, 540, 778, 428, 666, 114, 352, 254, 16, 498, 736, 142, 380, 484, 722, 324, 86, 666, 428, 736, 498, 282, 44, 512, 750, 16, 254, 254, 16, 526, 764, 114, 352, 540, 778, 428, 666, 254, 16, 750, 512, 254, 16, 414, 652, 428, 666, 778, 540, 792, 554, 428, 666, 338, 100, 428, 666, 114, 352, 554, 792, 128, 366, 764, 526, 526, 764, 30, 268, 30, 268, 268, 30, 666, 428, 442, 680, 540, 778, 30, 268, 268, 30, 380, 142, 30, 268, 722, 484, 30, 268, 254, 16, 268, 30, 470, 708, 72, 310}
Number of labels used: 46
Total time: 3.45s
Memory used: 216.09 MB
==============================
[runlim] end:			Wed Mar 25 02:12:34 2026
[runlim] status:		ok
[runlim] result:		0
[runlim] children:		1
[runlim] processes:		2
[runlim] real:			3.51 seconds
[runlim] time:			3.84 seconds
[runlim] space:			279 MB
[runlim] load:			2.00 maximum
[runlim] samples:		36
